Generations:
0: ((0, 35, 71, 62, 33, 69, 34, 5, 11, 38, 20, 49, 31, 73, 42, 56, 64, 2, 53, 66, 72, 70, 14, 40, 47, 61, 55, 6, 58, 23, 51, 15, 22, 46, 60, 57, 68, 27, 10, 7, 21, 12, 48, 3, 67, 17, 44, 9, 13, 52, 63, 54, 30, 24, 43, 18, 8, 50, 39, 16, 26, 4, 19, 32, 28, 74, 36, 29, 37, 59, 25, 41, 1, 65, 45), 1386)
1: ((0, 35, 71, 62, 33, 69, 34, 5, 11, 38, 20, 49, 31, 73, 42, 56, 64, 2, 53, 66, 72, 70, 14, 40, 47, 61, 55, 6, 58, 23, 51, 15, 22, 46, 60, 57, 68, 27, 10, 7, 21, 12, 48, 3, 67, 17, 44, 9, 13, 52, 63, 54, 30, 24, 43, 18, 8, 50, 39, 16, 26, 4, 19, 32, 28, 74, 36, 29, 37, 59, 25, 41, 1, 65, 45), 1386)
2: ((0, 35, 71, 62, 33, 69, 34, 5, 11, 38, 20, 49, 31, 73, 42, 56, 64, 2, 53, 66, 72, 70, 14, 40, 47, 61, 55, 6, 58, 23, 51, 15, 22, 46, 60, 57, 68, 27, 10, 7, 21, 12, 48, 3, 67, 17, 44, 9, 13, 52, 63, 54, 30, 24, 43, 18, 8, 50, 39, 16, 26, 4, 19, 32, 28, 74, 36, 29, 37, 59, 25, 41, 1, 65, 45), 1386)
3: ((0, 35, 71, 62, 33, 69, 34, 5, 11, 38, 20, 49, 31, 73, 42, 56, 64, 2, 53, 66, 72, 70, 14, 40, 47, 61, 55, 6, 58, 23, 51, 15, 22, 46, 60, 57, 68, 27, 10, 7, 21, 12, 48, 3, 67, 17, 44, 9, 13, 52, 63, 54, 30, 24, 43, 18, 8, 50, 39, 16, 26, 4, 19, 32, 28, 74, 36, 29, 37, 59, 25, 41, 1, 65, 45), 1386)
4: ((0, 35, 71, 62, 33, 69, 34, 5, 11, 38, 20, 49, 31, 73, 42, 56, 64, 2, 53, 66, 72, 70, 14, 40, 47, 61, 55, 6, 58, 23, 51, 15, 22, 46, 60, 57, 68, 27, 10, 7, 21, 12, 48, 3, 67, 17, 44, 9, 13, 52, 63, 54, 30, 24, 43, 18, 8, 50, 39, 16, 26, 4, 19, 32, 28, 74, 36, 29, 37, 59, 25, 41, 1, 65, 45), 1386)
5: ((0, 35, 71, 62, 33, 69, 34, 5, 11, 38, 20, 49, 31, 73, 42, 56, 64, 2, 53, 66, 72, 70, 14, 40, 47, 61, 55, 6, 58, 23, 51, 15, 22, 46, 60, 57, 68, 27, 10, 7, 21, 12, 48, 3, 67, 17, 44, 9, 13, 52, 63, 54, 30, 24, 43, 18, 8, 50, 39, 16, 26, 4, 19, 32, 28, 74, 36, 29, 37, 59, 25, 41, 1, 65, 45), 1386)
6: ((0, 35, 71, 62, 33, 69, 34, 5, 11, 38, 20, 49, 31, 73, 42, 56, 64, 2, 53, 66, 72, 70, 14, 40, 47, 61, 55, 6, 58, 23, 51, 15, 22, 46, 60, 57, 68, 27, 10, 7, 21, 12, 48, 3, 67, 17, 44, 9, 13, 52, 63, 54, 30, 24, 43, 18, 8, 50, 39, 16, 26, 4, 19, 32, 28, 74, 36, 29, 37, 59, 25, 41, 1, 65, 45), 1386)
7: ((0, 35, 71, 62, 33, 69, 34, 5, 11, 38, 20, 49, 31, 73, 42, 56, 64, 2, 53, 66, 72, 70, 14, 40, 47, 61, 55, 6, 58, 23, 51, 15, 22, 46, 60, 57, 68, 27, 10, 7, 21, 12, 48, 3, 67, 17, 44, 9, 13, 52, 63, 54, 30, 24, 43, 18, 8, 50, 39, 16, 26, 4, 19, 32, 28, 74, 36, 29, 37, 59, 25, 41, 1, 65, 45), 1386)
8: ((0, 35, 71, 62, 33, 69, 34, 5, 11, 38, 20, 49, 31, 73, 42, 56, 64, 2, 53, 66, 72, 70, 14, 40, 47, 61, 55, 6, 58, 23, 51, 15, 22, 46, 60, 57, 68, 27, 10, 7, 21, 12, 48, 3, 67, 17, 44, 9, 13, 52, 63, 54, 30, 24, 43, 18, 8, 50, 39, 16, 26, 4, 19, 32, 28, 74, 36, 29, 37, 59, 25, 41, 1, 65, 45), 1386)
9: ((0, 35, 71, 62, 33, 69, 34, 5, 11, 38, 20, 49, 31, 73, 42, 56, 64, 2, 53, 66, 72, 70, 14, 40, 47, 61, 55, 6, 58, 23, 51, 15, 22, 46, 60, 57, 68, 27, 10, 7, 21, 12, 48, 3, 67, 17, 44, 9, 13, 52, 63, 54, 30, 24, 43, 18, 8, 50, 39, 16, 26, 4, 19, 32, 28, 74, 36, 29, 37, 59, 25, 41, 1, 65, 45), 1386)
10: ((0, 35, 71, 62, 33, 69, 34, 5, 11, 38, 20, 49, 31, 73, 42, 56, 64, 2, 53, 66, 72, 70, 14, 40, 47, 61, 55, 6, 58, 23, 51, 15, 22, 46, 60, 57, 68, 27, 10, 7, 21, 12, 48, 3, 67, 17, 44, 9, 13, 52, 63, 54, 30, 24, 43, 18, 8, 50, 39, 16, 26, 4, 19, 32, 28, 74, 36, 29, 37, 59, 25, 41, 1, 65, 45), 1386)
11: ((0, 35, 71, 62, 33, 69, 34, 5, 11, 38, 20, 49, 31, 73, 42, 56, 64, 2, 53, 66, 72, 70, 14, 40, 47, 61, 55, 6, 58, 23, 51, 15, 22, 46, 60, 57, 68, 27, 10, 7, 21, 12, 48, 3, 67, 17, 44, 9, 13, 52, 63, 54, 30, 24, 43, 18, 8, 50, 39, 16, 26, 4, 19, 32, 28, 74, 36, 29, 37, 59, 25, 41, 1, 65, 45), 1386)
12: ((0, 35, 71, 62, 33, 69, 34, 5, 11, 38, 20, 49, 31, 73, 42, 56, 64, 2, 53, 66, 72, 70, 14, 40, 47, 61, 55, 6, 58, 23, 51, 15, 22, 46, 60, 57, 68, 27, 10, 7, 21, 12, 48, 3, 67, 17, 44, 9, 13, 52, 63, 54, 30, 24, 43, 18, 8, 50, 39, 16, 26, 4, 19, 32, 28, 74, 36, 29, 37, 59, 25, 41, 1, 65, 45), 1386)
13: ((0, 35, 71, 62, 33, 69, 34, 5, 11, 38, 20, 49, 31, 73, 42, 56, 64, 2, 53, 66, 72, 70, 14, 40, 47, 61, 55, 6, 58, 23, 51, 15, 22, 46, 60, 57, 68, 27, 10, 7, 21, 12, 48, 3, 67, 17, 44, 9, 13, 52, 63, 54, 30, 24, 43, 18, 8, 50, 39, 16, 26, 4, 19, 32, 28, 74, 36, 29, 37, 59, 25, 41, 1, 65, 45), 1386)
14: ((0, 35, 71, 62, 33, 69, 34, 5, 11, 38, 20, 49, 31, 73, 42, 56, 64, 2, 53, 66, 72, 70, 14, 40, 47, 61, 55, 6, 58, 23, 51, 15, 22, 46, 60, 57, 68, 27, 10, 7, 21, 12, 48, 3, 67, 17, 44, 9, 13, 52, 63, 54, 30, 24, 43, 18, 8, 50, 39, 16, 26, 4, 19, 32, 28, 74, 36, 29, 37, 59, 25, 41, 1, 65, 45), 1386)
15: ((0, 35, 71, 62, 33, 69, 34, 5, 11, 38, 20, 49, 31, 73, 42, 56, 64, 2, 53, 66, 72, 70, 14, 40, 47, 61, 55, 6, 58, 23, 51, 15, 22, 46, 60, 57, 68, 27, 10, 7, 21, 12, 48, 3, 67, 17, 44, 9, 13, 52, 63, 54, 30, 24, 43, 18, 8, 50, 39, 16, 26, 4, 19, 32, 28, 74, 36, 29, 37, 59, 25, 41, 1, 65, 45), 1386)
16: ((0, 35, 71, 62, 33, 69, 34, 5, 11, 38, 20, 49, 31, 73, 42, 56, 64, 2, 53, 66, 72, 70, 14, 40, 47, 61, 55, 6, 58, 23, 51, 15, 22, 46, 60, 57, 68, 27, 10, 7, 21, 12, 48, 3, 67, 17, 44, 9, 13, 52, 63, 54, 30, 24, 43, 18, 8, 50, 39, 16, 26, 4, 19, 32, 28, 74, 36, 29, 37, 59, 25, 41, 1, 65, 45), 1386)
17: ((0, 35, 71, 62, 33, 69, 34, 5, 11, 38, 20, 49, 31, 73, 42, 56, 64, 2, 53, 66, 72, 70, 14, 40, 47, 61, 55, 6, 58, 23, 51, 15, 22, 46, 60, 57, 68, 27, 10, 7, 21, 12, 48, 3, 67, 17, 44, 9, 13, 52, 63, 54, 30, 24, 43, 18, 8, 50, 39, 16, 26, 4, 19, 32, 28, 74, 36, 29, 37, 59, 25, 41, 1, 65, 45), 1386)
18: ((0, 35, 71, 62, 33, 69, 34, 5, 11, 38, 20, 49, 31, 73, 42, 56, 64, 2, 53, 66, 72, 70, 14, 40, 47, 61, 55, 6, 58, 23, 51, 15, 22, 46, 60, 57, 68, 27, 10, 7, 21, 12, 48, 3, 67, 17, 44, 9, 13, 52, 63, 54, 30, 24, 43, 18, 8, 50, 39, 16, 26, 4, 19, 32, 28, 74, 36, 29, 37, 59, 25, 41, 1, 65, 45), 1386)
19: ((0, 35, 71, 62, 33, 69, 34, 5, 11, 38, 20, 49, 31, 73, 42, 56, 64, 2, 53, 66, 72, 70, 14, 40, 47, 61, 55, 6, 58, 23, 51, 15, 22, 46, 60, 57, 68, 27, 10, 7, 21, 12, 48, 3, 67, 17, 44, 9, 13, 52, 63, 54, 30, 24, 43, 18, 8, 50, 39, 16, 26, 4, 19, 32, 28, 74, 36, 29, 37, 59, 25, 41, 1, 65, 45), 1386)
20: ((0, 35, 71, 62, 33, 69, 34, 5, 11, 38, 20, 49, 31, 73, 42, 56, 64, 2, 53, 66, 72, 70, 14, 40, 47, 61, 55, 6, 58, 23, 51, 15, 22, 46, 60, 57, 68, 27, 10, 7, 21, 12, 48, 3, 67, 17, 44, 9, 13, 52, 63, 54, 30, 24, 43, 18, 8, 50, 39, 16, 26, 4, 19, 32, 28, 74, 36, 29, 37, 59, 25, 41, 1, 65, 45), 1386)
21: ((0, 35, 71, 62, 33, 69, 34, 5, 11, 38, 20, 49, 31, 73, 42, 56, 64, 2, 53, 66, 72, 70, 14, 40, 47, 61, 55, 6, 58, 23, 51, 15, 22, 46, 60, 57, 68, 27, 10, 7, 21, 12, 48, 3, 67, 17, 44, 9, 13, 52, 63, 54, 30, 24, 43, 18, 8, 50, 39, 16, 26, 4, 19, 32, 28, 74, 36, 29, 37, 59, 25, 41, 1, 65, 45), 1386)
22: ((0, 35, 71, 62, 33, 69, 34, 5, 11, 38, 20, 49, 31, 73, 42, 56, 64, 2, 53, 66, 72, 70, 14, 40, 47, 61, 55, 6, 58, 23, 51, 15, 22, 46, 60, 57, 68, 27, 10, 7, 21, 12, 48, 3, 67, 17, 44, 9, 13, 52, 63, 54, 30, 24, 43, 18, 8, 50, 39, 16, 26, 4, 19, 32, 28, 74, 36, 29, 37, 59, 25, 41, 1, 65, 45), 1386)
23: ((0, 35, 71, 62, 33, 69, 34, 5, 11, 38, 20, 49, 31, 73, 42, 56, 64, 2, 53, 66, 72, 70, 14, 40, 47, 61, 55, 6, 58, 23, 51, 15, 22, 46, 60, 57, 68, 27, 10, 7, 21, 12, 48, 3, 67, 17, 44, 9, 13, 52, 63, 54, 30, 24, 43, 18, 8, 50, 39, 16, 26, 4, 19, 32, 28, 74, 36, 29, 37, 59, 25, 41, 1, 65, 45), 1386)
24: ((0, 35, 71, 62, 33, 69, 34, 5, 11, 38, 20, 49, 31, 73, 42, 56, 64, 2, 53, 66, 72, 70, 14, 40, 47, 61, 55, 6, 58, 23, 51, 15, 22, 46, 60, 57, 68, 27, 10, 7, 21, 12, 48, 3, 67, 17, 44, 9, 13, 52, 63, 54, 30, 24, 43, 18, 8, 50, 39, 16, 26, 4, 19, 32, 28, 74, 36, 29, 37, 59, 25, 41, 1, 65, 45), 1386)
25: ((0, 35, 71, 62, 33, 69, 34, 5, 11, 38, 20, 49, 31, 73, 42, 56, 64, 2, 53, 66, 72, 70, 14, 40, 47, 61, 55, 6, 58, 23, 51, 15, 22, 46, 60, 57, 68, 27, 10, 7, 21, 12, 48, 3, 67, 17, 44, 9, 13, 52, 63, 54, 30, 24, 43, 18, 8, 50, 39, 16, 26, 4, 19, 32, 28, 74, 36, 29, 37, 59, 25, 41, 1, 65, 45), 1386)
26: ((0, 35, 71, 62, 33, 69, 34, 5, 11, 38, 20, 49, 31, 73, 42, 56, 64, 2, 53, 66, 72, 70, 14, 40, 47, 61, 55, 6, 58, 23, 51, 15, 22, 46, 60, 57, 68, 27, 10, 7, 21, 12, 48, 3, 67, 17, 44, 9, 13, 52, 63, 54, 30, 24, 43, 18, 8, 50, 39, 16, 26, 4, 19, 32, 28, 74, 36, 29, 37, 59, 25, 41, 1, 65, 45), 1386)
27: ((0, 35, 71, 62, 33, 69, 34, 5, 11, 38, 20, 49, 31, 73, 42, 56, 64, 2, 53, 66, 72, 70, 14, 40, 47, 61, 55, 6, 58, 23, 51, 15, 22, 46, 60, 57, 68, 27, 10, 7, 21, 12, 48, 3, 67, 17, 44, 9, 13, 52, 63, 54, 30, 24, 43, 18, 8, 50, 39, 16, 26, 4, 19, 32, 28, 74, 36, 29, 37, 59, 25, 41, 1, 65, 45), 1386)
28: ((0, 35, 71, 62, 33, 69, 34, 5, 11, 38, 20, 49, 31, 73, 42, 56, 64, 2, 53, 66, 72, 70, 14, 40, 47, 61, 55, 6, 58, 23, 51, 15, 22, 46, 60, 57, 68, 27, 10, 7, 21, 12, 48, 3, 67, 17, 44, 9, 13, 52, 63, 54, 30, 24, 43, 18, 8, 50, 39, 16, 26, 4, 19, 32, 28, 74, 36, 29, 37, 59, 25, 41, 1, 65, 45), 1386)
29: ((0, 35, 71, 62, 33, 69, 34, 5, 11, 38, 20, 49, 31, 73, 42, 56, 64, 2, 53, 66, 72, 70, 14, 40, 47, 61, 55, 6, 58, 23, 51, 15, 22, 46, 60, 57, 68, 27, 10, 7, 21, 12, 48, 3, 67, 17, 44, 9, 13, 52, 63, 54, 30, 24, 43, 18, 8, 50, 39, 16, 26, 4, 19, 32, 28, 74, 36, 29, 37, 59, 25, 41, 1, 65, 45), 1386)
30: ((0, 35, 71, 62, 33, 69, 34, 5, 11, 38, 20, 49, 31, 73, 42, 56, 64, 2, 53, 66, 72, 70, 14, 40, 47, 61, 55, 6, 58, 23, 51, 15, 22, 46, 60, 57, 68, 27, 10, 7, 21, 12, 48, 3, 67, 17, 44, 9, 13, 52, 63, 54, 30, 24, 43, 18, 8, 50, 39, 16, 26, 4, 19, 32, 28, 74, 36, 29, 37, 59, 25, 41, 1, 65, 45), 1386)
31: ((0, 35, 71, 62, 33, 69, 34, 5, 11, 38, 20, 49, 31, 73, 42, 56, 64, 2, 53, 66, 72, 70, 14, 40, 47, 61, 55, 6, 58, 23, 51, 15, 22, 46, 60, 57, 68, 27, 10, 7, 21, 12, 48, 3, 67, 17, 44, 9, 13, 52, 63, 54, 30, 24, 43, 18, 8, 50, 39, 16, 26, 4, 19, 32, 28, 74, 36, 29, 37, 59, 25, 41, 1, 65, 45), 1386)
32: ((0, 35, 71, 62, 33, 69, 34, 5, 11, 38, 20, 49, 31, 73, 42, 56, 64, 2, 53, 66, 72, 70, 14, 40, 47, 61, 55, 6, 58, 23, 51, 15, 22, 46, 60, 57, 68, 27, 10, 7, 21, 12, 48, 3, 67, 17, 44, 9, 13, 52, 63, 54, 30, 24, 43, 18, 8, 50, 39, 16, 26, 4, 19, 32, 28, 74, 36, 29, 37, 59, 25, 41, 1, 65, 45), 1386)
33: ((0, 35, 71, 62, 33, 69, 34, 5, 11, 38, 20, 49, 31, 73, 42, 56, 64, 2, 53, 66, 72, 70, 14, 40, 47, 61, 55, 6, 58, 23, 51, 15, 22, 46, 60, 57, 68, 27, 10, 7, 21, 12, 48, 3, 67, 17, 44, 9, 13, 52, 63, 54, 30, 24, 43, 18, 8, 50, 39, 16, 26, 4, 19, 32, 28, 74, 36, 29, 37, 59, 25, 41, 1, 65, 45), 1386)
34: ((0, 35, 71, 62, 33, 69, 34, 5, 11, 38, 20, 49, 31, 73, 42, 56, 64, 2, 53, 66, 72, 70, 14, 40, 47, 61, 55, 6, 58, 23, 51, 15, 22, 46, 60, 57, 68, 27, 10, 7, 21, 12, 48, 3, 67, 17, 44, 9, 13, 52, 63, 54, 30, 24, 43, 18, 8, 50, 39, 16, 26, 4, 19, 32, 28, 74, 36, 29, 37, 59, 25, 41, 1, 65, 45), 1386)
35: ((0, 35, 71, 62, 33, 69, 34, 5, 11, 38, 20, 49, 31, 73, 42, 56, 64, 2, 53, 66, 72, 70, 14, 40, 47, 61, 55, 6, 58, 23, 51, 15, 22, 46, 60, 57, 68, 27, 10, 7, 21, 12, 48, 3, 67, 17, 44, 9, 13, 52, 63, 54, 30, 24, 43, 18, 8, 50, 39, 16, 26, 4, 19, 32, 28, 74, 36, 29, 37, 59, 25, 41, 1, 65, 45), 1386)
36: ((0, 35, 71, 62, 33, 69, 34, 5, 11, 38, 20, 49, 31, 73, 42, 56, 64, 2, 53, 66, 72, 70, 14, 40, 47, 61, 55, 6, 58, 23, 51, 15, 22, 46, 60, 57, 68, 27, 10, 7, 21, 12, 48, 3, 67, 17, 44, 9, 13, 52, 63, 54, 30, 24, 43, 18, 8, 50, 39, 16, 26, 4, 19, 32, 28, 74, 36, 29, 37, 59, 25, 41, 1, 65, 45), 1386)
37: ((0, 35, 71, 62, 33, 69, 34, 5, 11, 38, 20, 49, 31, 73, 42, 56, 64, 2, 53, 66, 72, 70, 14, 40, 47, 61, 55, 6, 58, 23, 51, 15, 22, 46, 60, 57, 68, 27, 10, 7, 21, 12, 48, 3, 67, 17, 44, 9, 13, 52, 63, 54, 30, 24, 43, 18, 8, 50, 39, 16, 26, 4, 19, 32, 28, 74, 36, 29, 37, 59, 25, 41, 1, 65, 45), 1386)
38: ((0, 35, 71, 62, 33, 69, 34, 5, 11, 38, 20, 49, 31, 73, 42, 56, 64, 2, 53, 66, 72, 70, 14, 40, 47, 61, 55, 6, 58, 23, 51, 15, 22, 46, 60, 57, 68, 27, 10, 7, 21, 12, 48, 3, 67, 17, 44, 9, 13, 52, 63, 54, 30, 24, 43, 18, 8, 50, 39, 16, 26, 4, 19, 32, 28, 74, 36, 29, 37, 59, 25, 41, 1, 65, 45), 1386)
39: ((0, 35, 71, 62, 33, 69, 34, 5, 11, 38, 20, 49, 31, 73, 42, 56, 64, 2, 53, 66, 72, 70, 14, 40, 47, 61, 55, 6, 58, 23, 51, 15, 22, 46, 60, 57, 68, 27, 10, 7, 21, 12, 48, 3, 67, 17, 44, 9, 13, 52, 63, 54, 30, 24, 43, 18, 8, 50, 39, 16, 26, 4, 19, 32, 28, 74, 36, 29, 37, 59, 25, 41, 1, 65, 45), 1386)
40: ((0, 35, 71, 62, 33, 69, 34, 5, 11, 38, 20, 49, 31, 73, 42, 56, 64, 2, 53, 66, 72, 70, 14, 40, 47, 61, 55, 6, 58, 23, 51, 15, 22, 46, 60, 57, 68, 27, 10, 7, 21, 12, 48, 3, 67, 17, 44, 9, 13, 52, 63, 54, 30, 24, 43, 18, 8, 50, 39, 16, 26, 4, 19, 32, 28, 74, 36, 29, 37, 59, 25, 41, 1, 65, 45), 1386)
41: ((0, 35, 71, 62, 33, 69, 34, 5, 11, 38, 20, 49, 31, 73, 42, 56, 64, 2, 53, 66, 72, 70, 14, 40, 47, 61, 55, 6, 58, 23, 51, 15, 22, 46, 60, 57, 68, 27, 10, 7, 21, 12, 48, 3, 67, 17, 44, 9, 13, 52, 63, 54, 30, 24, 43, 18, 8, 50, 39, 16, 26, 4, 19, 32, 28, 74, 36, 29, 37, 59, 25, 41, 1, 65, 45), 1386)
42: ((0, 35, 71, 62, 33, 69, 34, 5, 11, 38, 20, 49, 31, 73, 42, 56, 64, 2, 53, 66, 72, 70, 14, 40, 47, 61, 55, 6, 58, 23, 51, 15, 22, 46, 60, 57, 68, 27, 10, 7, 21, 12, 48, 3, 67, 17, 44, 9, 13, 52, 63, 54, 30, 24, 43, 18, 8, 50, 39, 16, 26, 4, 19, 32, 28, 74, 36, 29, 37, 59, 25, 41, 1, 65, 45), 1386)
43: ((0, 35, 71, 62, 33, 69, 34, 5, 11, 38, 20, 49, 31, 73, 42, 56, 64, 2, 53, 66, 72, 70, 14, 40, 47, 61, 55, 6, 58, 23, 51, 15, 22, 46, 60, 57, 68, 27, 10, 7, 21, 12, 48, 3, 67, 17, 44, 9, 13, 52, 63, 54, 30, 24, 43, 18, 8, 50, 39, 16, 26, 4, 19, 32, 28, 74, 36, 29, 37, 59, 25, 41, 1, 65, 45), 1386)
44: ((0, 35, 71, 62, 33, 69, 34, 5, 11, 38, 20, 49, 31, 73, 42, 56, 64, 2, 53, 66, 72, 70, 14, 40, 47, 61, 55, 6, 58, 23, 51, 15, 22, 46, 60, 57, 68, 27, 10, 7, 21, 12, 48, 3, 67, 17, 44, 9, 13, 52, 63, 54, 30, 24, 43, 18, 8, 50, 39, 16, 26, 4, 19, 32, 28, 74, 36, 29, 37, 59, 25, 41, 1, 65, 45), 1386)
45: ((0, 35, 71, 62, 33, 69, 34, 5, 11, 38, 20, 49, 31, 73, 42, 56, 64, 2, 53, 66, 72, 70, 14, 40, 47, 61, 55, 6, 58, 23, 51, 15, 22, 46, 60, 57, 68, 27, 10, 7, 21, 12, 48, 3, 67, 17, 44, 9, 13, 52, 63, 54, 30, 24, 43, 18, 8, 50, 39, 16, 26, 4, 19, 32, 28, 74, 36, 29, 37, 59, 25, 41, 1, 65, 45), 1386)
46: ((0, 35, 71, 62, 33, 69, 34, 5, 11, 38, 20, 49, 31, 73, 42, 56, 64, 2, 53, 66, 72, 70, 14, 40, 47, 61, 55, 6, 58, 23, 51, 15, 22, 46, 60, 57, 68, 27, 10, 7, 21, 12, 48, 3, 67, 17, 44, 9, 13, 52, 63, 54, 30, 24, 43, 18, 8, 50, 39, 16, 26, 4, 19, 32, 28, 74, 36, 29, 37, 59, 25, 41, 1, 65, 45), 1386)
47: ((0, 35, 71, 62, 33, 69, 34, 5, 11, 38, 20, 49, 31, 73, 42, 56, 64, 2, 53, 66, 72, 70, 14, 40, 47, 61, 55, 6, 58, 23, 51, 15, 22, 46, 60, 57, 68, 27, 10, 7, 21, 12, 48, 3, 67, 17, 44, 9, 13, 52, 63, 54, 30, 24, 43, 18, 8, 50, 39, 16, 26, 4, 19, 32, 28, 74, 36, 29, 37, 59, 25, 41, 1, 65, 45), 1386)
48: ((0, 35, 71, 62, 33, 69, 34, 5, 11, 38, 20, 49, 31, 73, 42, 56, 64, 2, 53, 66, 72, 70, 14, 40, 47, 61, 55, 6, 58, 23, 51, 15, 22, 46, 60, 57, 68, 27, 10, 7, 21, 12, 48, 3, 67, 17, 44, 9, 13, 52, 63, 54, 30, 24, 43, 18, 8, 50, 39, 16, 26, 4, 19, 32, 28, 74, 36, 29, 37, 59, 25, 41, 1, 65, 45), 1386)
49: ((0, 35, 71, 62, 33, 69, 34, 5, 11, 38, 20, 49, 31, 73, 42, 56, 64, 2, 53, 66, 72, 70, 14, 40, 47, 61, 55, 6, 58, 23, 51, 15, 22, 46, 60, 57, 68, 27, 10, 7, 21, 12, 48, 3, 67, 17, 44, 9, 13, 52, 63, 54, 30, 24, 43, 18, 8, 50, 39, 16, 26, 4, 19, 32, 28, 74, 36, 29, 37, 59, 25, 41, 1, 65, 45), 1386)
50: ((0, 35, 71, 62, 33, 69, 34, 5, 11, 38, 20, 49, 31, 73, 42, 56, 64, 2, 53, 66, 72, 70, 14, 40, 47, 61, 55, 6, 58, 23, 51, 15, 22, 46, 60, 57, 68, 27, 10, 7, 21, 12, 48, 3, 67, 17, 44, 9, 13, 52, 63, 54, 30, 24, 43, 18, 8, 50, 39, 16, 26, 4, 19, 32, 28, 74, 36, 29, 37, 59, 25, 41, 1, 65, 45), 1386)
51: ((0, 35, 71, 62, 33, 69, 34, 5, 11, 38, 20, 49, 31, 73, 42, 56, 64, 2, 53, 66, 72, 70, 14, 40, 47, 61, 55, 6, 58, 23, 51, 15, 22, 46, 60, 57, 68, 27, 10, 7, 21, 12, 48, 3, 67, 17, 44, 9, 13, 52, 63, 54, 30, 24, 43, 18, 8, 50, 39, 16, 26, 4, 19, 32, 28, 74, 36, 29, 37, 59, 25, 41, 1, 65, 45), 1386)
52: ((0, 35, 71, 62, 33, 69, 34, 5, 11, 38, 20, 49, 31, 73, 42, 56, 64, 2, 53, 66, 72, 70, 14, 40, 47, 61, 55, 6, 58, 23, 51, 15, 22, 46, 60, 57, 68, 27, 10, 7, 21, 12, 48, 3, 67, 17, 44, 9, 13, 52, 63, 54, 30, 24, 43, 18, 8, 50, 39, 16, 26, 4, 19, 32, 28, 74, 36, 29, 37, 59, 25, 41, 1, 65, 45), 1386)
53: ((0, 35, 71, 62, 33, 69, 34, 5, 11, 38, 20, 49, 31, 73, 42, 56, 64, 2, 53, 66, 72, 70, 14, 40, 47, 61, 55, 6, 58, 23, 51, 15, 22, 46, 60, 57, 68, 27, 10, 7, 21, 12, 48, 3, 67, 17, 44, 9, 13, 52, 63, 54, 30, 24, 43, 18, 8, 50, 39, 16, 26, 4, 19, 32, 28, 74, 36, 29, 37, 59, 25, 41, 1, 65, 45), 1386)
54: ((0, 35, 71, 62, 33, 69, 34, 5, 11, 38, 20, 49, 31, 73, 42, 56, 64, 2, 53, 66, 72, 70, 14, 40, 47, 61, 55, 6, 58, 23, 51, 15, 22, 46, 60, 57, 68, 27, 10, 7, 21, 12, 48, 3, 67, 17, 44, 9, 13, 52, 63, 54, 30, 24, 43, 18, 8, 50, 39, 16, 26, 4, 19, 32, 28, 74, 36, 29, 37, 59, 25, 41, 1, 65, 45), 1386)
55: ((0, 35, 71, 62, 33, 69, 34, 5, 11, 38, 20, 49, 31, 73, 42, 56, 64, 2, 53, 66, 72, 70, 14, 40, 47, 61, 55, 6, 58, 23, 51, 15, 22, 46, 60, 57, 68, 27, 10, 7, 21, 12, 48, 3, 67, 17, 44, 9, 13, 52, 63, 54, 30, 24, 43, 18, 8, 50, 39, 16, 26, 4, 19, 32, 28, 74, 36, 29, 37, 59, 25, 41, 1, 65, 45), 1386)
56: ((0, 35, 71, 62, 33, 69, 34, 5, 11, 38, 20, 49, 31, 73, 42, 56, 64, 2, 53, 66, 72, 70, 14, 40, 47, 61, 55, 6, 58, 23, 51, 15, 22, 46, 60, 57, 68, 27, 10, 7, 21, 12, 48, 3, 67, 17, 44, 9, 13, 52, 63, 54, 30, 24, 43, 18, 8, 50, 39, 16, 26, 4, 19, 32, 28, 74, 36, 29, 37, 59, 25, 41, 1, 65, 45), 1386)
57: ((0, 35, 71, 62, 33, 69, 34, 5, 11, 38, 20, 49, 31, 73, 42, 56, 64, 2, 53, 66, 72, 70, 14, 40, 47, 61, 55, 6, 58, 23, 51, 15, 22, 46, 60, 57, 68, 27, 10, 7, 21, 12, 48, 3, 67, 17, 44, 9, 13, 52, 63, 54, 30, 24, 43, 18, 8, 50, 39, 16, 26, 4, 19, 32, 28, 74, 36, 29, 37, 59, 25, 41, 1, 65, 45), 1386)
58: ((0, 35, 71, 62, 33, 69, 34, 5, 11, 38, 20, 49, 31, 73, 42, 56, 64, 2, 53, 66, 72, 70, 14, 40, 47, 61, 55, 6, 58, 23, 51, 15, 22, 46, 60, 57, 68, 27, 10, 7, 21, 12, 48, 3, 67, 17, 44, 9, 13, 52, 63, 54, 30, 24, 43, 18, 8, 50, 39, 16, 26, 4, 19, 32, 28, 74, 36, 29, 37, 59, 25, 41, 1, 65, 45), 1386)
59: ((0, 35, 71, 62, 33, 69, 34, 5, 11, 38, 20, 49, 31, 73, 42, 56, 64, 2, 53, 66, 72, 70, 14, 40, 47, 61, 55, 6, 58, 23, 51, 15, 22, 46, 60, 57, 68, 27, 10, 7, 21, 12, 48, 3, 67, 17, 44, 9, 13, 52, 63, 54, 30, 24, 43, 18, 8, 50, 39, 16, 26, 4, 19, 32, 28, 74, 36, 29, 37, 59, 25, 41, 1, 65, 45), 1386)
60: ((0, 35, 71, 62, 33, 69, 34, 5, 11, 38, 20, 49, 31, 73, 42, 56, 64, 2, 53, 66, 72, 70, 14, 40, 47, 61, 55, 6, 58, 23, 51, 15, 22, 46, 60, 57, 68, 27, 10, 7, 21, 12, 48, 3, 67, 17, 44, 9, 13, 52, 63, 54, 30, 24, 43, 18, 8, 50, 39, 16, 26, 4, 19, 32, 28, 74, 36, 29, 37, 59, 25, 41, 1, 65, 45), 1386)
61: ((0, 35, 71, 62, 33, 69, 34, 5, 11, 38, 20, 49, 31, 73, 42, 56, 64, 2, 53, 66, 72, 70, 14, 40, 47, 61, 55, 6, 58, 23, 51, 15, 22, 46, 60, 57, 68, 27, 10, 7, 21, 12, 48, 3, 67, 17, 44, 9, 13, 52, 63, 54, 30, 24, 43, 18, 8, 50, 39, 16, 26, 4, 19, 32, 28, 74, 36, 29, 37, 59, 25, 41, 1, 65, 45), 1386)
62: ((0, 35, 71, 62, 33, 69, 34, 5, 11, 38, 20, 49, 31, 73, 42, 56, 64, 2, 53, 66, 72, 70, 14, 40, 47, 61, 55, 6, 58, 23, 51, 15, 22, 46, 60, 57, 68, 27, 10, 7, 21, 12, 48, 3, 67, 17, 44, 9, 13, 52, 63, 54, 30, 24, 43, 18, 8, 50, 39, 16, 26, 4, 19, 32, 28, 74, 36, 29, 37, 59, 25, 41, 1, 65, 45), 1386)
63: ((0, 35, 71, 62, 33, 69, 34, 5, 11, 38, 20, 49, 31, 73, 42, 56, 64, 2, 53, 66, 72, 70, 14, 40, 47, 61, 55, 6, 58, 23, 51, 15, 22, 46, 60, 57, 68, 27, 10, 7, 21, 12, 48, 3, 67, 17, 44, 9, 13, 52, 63, 54, 30, 24, 43, 18, 8, 50, 39, 16, 26, 4, 19, 32, 28, 74, 36, 29, 37, 59, 25, 41, 1, 65, 45), 1386)
64: ((0, 35, 71, 62, 33, 69, 34, 5, 11, 38, 20, 49, 31, 73, 42, 56, 64, 2, 53, 66, 72, 70, 14, 40, 47, 61, 55, 6, 58, 23, 51, 15, 22, 46, 60, 57, 68, 27, 10, 7, 21, 12, 48, 3, 67, 17, 44, 9, 13, 52, 63, 54, 30, 24, 43, 18, 8, 50, 39, 16, 26, 4, 19, 32, 28, 74, 36, 29, 37, 59, 25, 41, 1, 65, 45), 1386)
65: ((0, 35, 71, 62, 33, 69, 34, 5, 11, 38, 20, 49, 31, 73, 42, 56, 64, 2, 53, 66, 72, 70, 14, 40, 47, 61, 55, 6, 58, 23, 51, 15, 22, 46, 60, 57, 68, 27, 10, 7, 21, 12, 48, 3, 67, 17, 44, 9, 13, 52, 63, 54, 30, 24, 43, 18, 8, 50, 39, 16, 26, 4, 19, 32, 28, 74, 36, 29, 37, 59, 25, 41, 1, 65, 45), 1386)
66: ((0, 35, 71, 62, 33, 69, 34, 5, 11, 38, 20, 49, 31, 73, 42, 56, 64, 2, 53, 66, 72, 70, 14, 40, 47, 61, 55, 6, 58, 23, 51, 15, 22, 46, 60, 57, 68, 27, 10, 7, 21, 12, 48, 3, 67, 17, 44, 9, 13, 52, 63, 54, 30, 24, 43, 18, 8, 50, 39, 16, 26, 4, 19, 32, 28, 74, 36, 29, 37, 59, 25, 41, 1, 65, 45), 1386)
67: ((0, 35, 71, 62, 33, 69, 34, 5, 11, 38, 20, 49, 31, 73, 42, 56, 64, 2, 53, 66, 72, 70, 14, 40, 47, 61, 55, 6, 58, 23, 51, 15, 22, 46, 60, 57, 68, 27, 10, 7, 21, 12, 48, 3, 67, 17, 44, 9, 13, 52, 63, 54, 30, 24, 43, 18, 8, 50, 39, 16, 26, 4, 19, 32, 28, 74, 36, 29, 37, 59, 25, 41, 1, 65, 45), 1386)
68: ((0, 35, 71, 62, 33, 69, 34, 5, 11, 38, 20, 49, 31, 73, 42, 56, 64, 2, 53, 66, 72, 70, 14, 40, 47, 61, 55, 6, 58, 23, 51, 15, 22, 46, 60, 57, 68, 27, 10, 7, 21, 12, 48, 3, 67, 17, 44, 9, 13, 52, 63, 54, 30, 24, 43, 18, 8, 50, 39, 16, 26, 4, 19, 32, 28, 74, 36, 29, 37, 59, 25, 41, 1, 65, 45), 1386)
69: ((0, 35, 71, 62, 33, 69, 34, 5, 11, 38, 20, 49, 31, 73, 42, 56, 64, 2, 53, 66, 72, 70, 14, 40, 47, 61, 55, 6, 58, 23, 51, 15, 22, 46, 60, 57, 68, 27, 10, 7, 21, 12, 48, 3, 67, 17, 44, 9, 13, 52, 63, 54, 30, 24, 43, 18, 8, 50, 39, 16, 26, 4, 19, 32, 28, 74, 36, 29, 37, 59, 25, 41, 1, 65, 45), 1386)
70: ((0, 35, 71, 62, 33, 69, 34, 5, 11, 38, 20, 49, 31, 73, 42, 56, 64, 2, 53, 66, 72, 70, 14, 40, 47, 61, 55, 6, 58, 23, 51, 15, 22, 46, 60, 57, 68, 27, 10, 7, 21, 12, 48, 3, 67, 17, 44, 9, 13, 52, 63, 54, 30, 24, 43, 18, 8, 50, 39, 16, 26, 4, 19, 32, 28, 74, 36, 29, 37, 59, 25, 41, 1, 65, 45), 1386)
71: ((0, 35, 71, 62, 33, 69, 34, 5, 11, 38, 20, 49, 31, 73, 42, 56, 64, 2, 53, 66, 72, 70, 14, 40, 47, 61, 55, 6, 58, 23, 51, 15, 22, 46, 60, 57, 68, 27, 10, 7, 21, 12, 48, 3, 67, 17, 44, 9, 13, 52, 63, 54, 30, 24, 43, 18, 8, 50, 39, 16, 26, 4, 19, 32, 28, 74, 36, 29, 37, 59, 25, 41, 1, 65, 45), 1386)
72: ((0, 35, 71, 62, 33, 69, 34, 5, 11, 38, 20, 49, 31, 73, 42, 56, 64, 2, 53, 66, 72, 70, 14, 40, 47, 61, 55, 6, 58, 23, 51, 15, 22, 46, 60, 57, 68, 27, 10, 7, 21, 12, 48, 3, 67, 17, 44, 9, 13, 52, 63, 54, 30, 24, 43, 18, 8, 50, 39, 16, 26, 4, 19, 32, 28, 74, 36, 29, 37, 59, 25, 41, 1, 65, 45), 1386)
73: ((0, 35, 71, 62, 33, 69, 34, 5, 11, 38, 20, 49, 31, 73, 42, 56, 64, 2, 53, 66, 72, 70, 14, 40, 47, 61, 55, 6, 58, 23, 51, 15, 22, 46, 60, 57, 68, 27, 10, 7, 21, 12, 48, 3, 67, 17, 44, 9, 13, 52, 63, 54, 30, 24, 43, 18, 8, 50, 39, 16, 26, 4, 19, 32, 28, 74, 36, 29, 37, 59, 25, 41, 1, 65, 45), 1386)
74: ((0, 35, 71, 62, 33, 69, 34, 5, 11, 38, 20, 49, 31, 73, 42, 56, 64, 2, 53, 66, 72, 70, 14, 40, 47, 61, 55, 6, 58, 23, 51, 15, 22, 46, 60, 57, 68, 27, 10, 7, 21, 12, 48, 3, 67, 17, 44, 9, 13, 52, 63, 54, 30, 24, 43, 18, 8, 50, 39, 16, 26, 4, 19, 32, 28, 74, 36, 29, 37, 59, 25, 41, 1, 65, 45), 1386)
75: ((0, 35, 71, 62, 33, 69, 34, 5, 11, 38, 20, 49, 31, 73, 42, 56, 64, 2, 53, 66, 72, 70, 14, 40, 47, 61, 55, 6, 58, 23, 51, 15, 22, 46, 60, 57, 68, 27, 10, 7, 21, 12, 48, 3, 67, 17, 44, 9, 13, 52, 63, 54, 30, 24, 43, 18, 8, 50, 39, 16, 26, 4, 19, 32, 28, 74, 36, 29, 37, 59, 25, 41, 1, 65, 45), 1386)
76: ((0, 35, 71, 62, 33, 69, 34, 5, 11, 38, 20, 49, 31, 73, 42, 56, 64, 2, 53, 66, 72, 70, 14, 40, 47, 61, 55, 6, 58, 23, 51, 15, 22, 46, 60, 57, 68, 27, 10, 7, 21, 12, 48, 3, 67, 17, 44, 9, 13, 52, 63, 54, 30, 24, 43, 18, 8, 50, 39, 16, 26, 4, 19, 32, 28, 74, 36, 29, 37, 59, 25, 41, 1, 65, 45), 1386)
77: ((0, 35, 71, 62, 33, 69, 34, 5, 11, 38, 20, 49, 31, 73, 42, 56, 64, 2, 53, 66, 72, 70, 14, 40, 47, 61, 55, 6, 58, 23, 51, 15, 22, 46, 60, 57, 68, 27, 10, 7, 21, 12, 48, 3, 67, 17, 44, 9, 13, 52, 63, 54, 30, 24, 43, 18, 8, 50, 39, 16, 26, 4, 19, 32, 28, 74, 36, 29, 37, 59, 25, 41, 1, 65, 45), 1386)
78: ((0, 35, 71, 62, 33, 69, 34, 5, 11, 38, 20, 49, 31, 73, 42, 56, 64, 2, 53, 66, 72, 70, 14, 40, 47, 61, 55, 6, 58, 23, 51, 15, 22, 46, 60, 57, 68, 27, 10, 7, 21, 12, 48, 3, 67, 17, 44, 9, 13, 52, 63, 54, 30, 24, 43, 18, 8, 50, 39, 16, 26, 4, 19, 32, 28, 74, 36, 29, 37, 59, 25, 41, 1, 65, 45), 1386)
79: ((0, 35, 71, 62, 33, 69, 34, 5, 11, 38, 20, 49, 31, 73, 42, 56, 64, 2, 53, 66, 72, 70, 14, 40, 47, 61, 55, 6, 58, 23, 51, 15, 22, 46, 60, 57, 68, 27, 10, 7, 21, 12, 48, 3, 67, 17, 44, 9, 13, 52, 63, 54, 30, 24, 43, 18, 8, 50, 39, 16, 26, 4, 19, 32, 28, 74, 36, 29, 37, 59, 25, 41, 1, 65, 45), 1386)
80: ((0, 35, 71, 62, 33, 69, 34, 5, 11, 38, 20, 49, 31, 73, 42, 56, 64, 2, 53, 66, 72, 70, 14, 40, 47, 61, 55, 6, 58, 23, 51, 15, 22, 46, 60, 57, 68, 27, 10, 7, 21, 12, 48, 3, 67, 17, 44, 9, 13, 52, 63, 54, 30, 24, 43, 18, 8, 50, 39, 16, 26, 4, 19, 32, 28, 74, 36, 29, 37, 59, 25, 41, 1, 65, 45), 1386)
81: ((0, 35, 71, 62, 33, 69, 34, 5, 11, 38, 20, 49, 31, 73, 42, 56, 64, 2, 53, 66, 72, 70, 14, 40, 47, 61, 55, 6, 58, 23, 51, 15, 22, 46, 60, 57, 68, 27, 10, 7, 21, 12, 48, 3, 67, 17, 44, 9, 13, 52, 63, 54, 30, 24, 43, 18, 8, 50, 39, 16, 26, 4, 19, 32, 28, 74, 36, 29, 37, 59, 25, 41, 1, 65, 45), 1386)
82: ((0, 35, 71, 62, 33, 69, 34, 5, 11, 38, 20, 49, 31, 73, 42, 56, 64, 2, 53, 66, 72, 70, 14, 40, 47, 61, 55, 6, 58, 23, 51, 15, 22, 46, 60, 57, 68, 27, 10, 7, 21, 12, 48, 3, 67, 17, 44, 9, 13, 52, 63, 54, 30, 24, 43, 18, 8, 50, 39, 16, 26, 4, 19, 32, 28, 74, 36, 29, 37, 59, 25, 41, 1, 65, 45), 1386)
83: ((0, 35, 71, 62, 33, 69, 34, 5, 11, 38, 20, 49, 31, 73, 42, 56, 64, 2, 53, 66, 72, 70, 14, 40, 47, 61, 55, 6, 58, 23, 51, 15, 22, 46, 60, 57, 68, 27, 10, 7, 21, 12, 48, 3, 67, 17, 44, 9, 13, 52, 63, 54, 30, 24, 43, 18, 8, 50, 39, 16, 26, 4, 19, 32, 28, 74, 36, 29, 37, 59, 25, 41, 1, 65, 45), 1386)
84: ((0, 35, 71, 62, 33, 69, 34, 5, 11, 38, 20, 49, 31, 73, 42, 56, 64, 2, 53, 66, 72, 70, 14, 40, 47, 61, 55, 6, 58, 23, 51, 15, 22, 46, 60, 57, 68, 27, 10, 7, 21, 12, 48, 3, 67, 17, 44, 9, 13, 52, 63, 54, 30, 24, 43, 18, 8, 50, 39, 16, 26, 4, 19, 32, 28, 74, 36, 29, 37, 59, 25, 41, 1, 65, 45), 1386)
85: ((0, 35, 71, 62, 33, 69, 34, 5, 11, 38, 20, 49, 31, 73, 42, 56, 64, 2, 53, 66, 72, 70, 14, 40, 47, 61, 55, 6, 58, 23, 51, 15, 22, 46, 60, 57, 68, 27, 10, 7, 21, 12, 48, 3, 67, 17, 44, 9, 13, 52, 63, 54, 30, 24, 43, 18, 8, 50, 39, 16, 26, 4, 19, 32, 28, 74, 36, 29, 37, 59, 25, 41, 1, 65, 45), 1386)
86: ((0, 35, 71, 62, 33, 69, 34, 5, 11, 38, 20, 49, 31, 73, 42, 56, 64, 2, 53, 66, 72, 70, 14, 40, 47, 61, 55, 6, 58, 23, 51, 15, 22, 46, 60, 57, 68, 27, 10, 7, 21, 12, 48, 3, 67, 17, 44, 9, 13, 52, 63, 54, 30, 24, 43, 18, 8, 50, 39, 16, 26, 4, 19, 32, 28, 74, 36, 29, 37, 59, 25, 41, 1, 65, 45), 1386)
87: ((0, 35, 71, 62, 33, 69, 34, 5, 11, 38, 20, 49, 31, 73, 42, 56, 64, 2, 53, 66, 72, 70, 14, 40, 47, 61, 55, 6, 58, 23, 51, 15, 22, 46, 60, 57, 68, 27, 10, 7, 21, 12, 48, 3, 67, 17, 44, 9, 13, 52, 63, 54, 30, 24, 43, 18, 8, 50, 39, 16, 26, 4, 19, 32, 28, 74, 36, 29, 37, 59, 25, 41, 1, 65, 45), 1386)
88: ((0, 35, 71, 62, 33, 69, 34, 5, 11, 38, 20, 49, 31, 73, 42, 56, 64, 2, 53, 66, 72, 70, 14, 40, 47, 61, 55, 6, 58, 23, 51, 15, 22, 46, 60, 57, 68, 27, 10, 7, 21, 12, 48, 3, 67, 17, 44, 9, 13, 52, 63, 54, 30, 24, 43, 18, 8, 50, 39, 16, 26, 4, 19, 32, 28, 74, 36, 29, 37, 59, 25, 41, 1, 65, 45), 1386)
89: ((0, 35, 71, 62, 33, 69, 34, 5, 11, 38, 20, 49, 31, 73, 42, 56, 64, 2, 53, 66, 72, 70, 14, 40, 47, 61, 55, 6, 58, 23, 51, 15, 22, 46, 60, 57, 68, 27, 10, 7, 21, 12, 48, 3, 67, 17, 44, 9, 13, 52, 63, 54, 30, 24, 43, 18, 8, 50, 39, 16, 26, 4, 19, 32, 28, 74, 36, 29, 37, 59, 25, 41, 1, 65, 45), 1386)
90: ((0, 35, 71, 62, 33, 69, 34, 5, 11, 38, 20, 49, 31, 73, 42, 56, 64, 2, 53, 66, 72, 70, 14, 40, 47, 61, 55, 6, 58, 23, 51, 15, 22, 46, 60, 57, 68, 27, 10, 7, 21, 12, 48, 3, 67, 17, 44, 9, 13, 52, 63, 54, 30, 24, 43, 18, 8, 50, 39, 16, 26, 4, 19, 32, 28, 74, 36, 29, 37, 59, 25, 41, 1, 65, 45), 1386)
91: ((0, 35, 71, 62, 33, 69, 34, 5, 11, 38, 20, 49, 31, 73, 42, 56, 64, 2, 53, 66, 72, 70, 14, 40, 47, 61, 55, 6, 58, 23, 51, 15, 22, 46, 60, 57, 68, 27, 10, 7, 21, 12, 48, 3, 67, 17, 44, 9, 13, 52, 63, 54, 30, 24, 43, 18, 8, 50, 39, 16, 26, 4, 19, 32, 28, 74, 36, 29, 37, 59, 25, 41, 1, 65, 45), 1386)
92: ((0, 35, 71, 62, 33, 69, 34, 5, 11, 38, 20, 49, 31, 73, 42, 56, 64, 2, 53, 66, 72, 70, 14, 40, 47, 61, 55, 6, 58, 23, 51, 15, 22, 46, 60, 57, 68, 27, 10, 7, 21, 12, 48, 3, 67, 17, 44, 9, 13, 52, 63, 54, 30, 24, 43, 18, 8, 50, 39, 16, 26, 4, 19, 32, 28, 74, 36, 29, 37, 59, 25, 41, 1, 65, 45), 1386)
93: ((0, 35, 71, 62, 33, 69, 34, 5, 11, 38, 20, 49, 31, 73, 42, 56, 64, 2, 53, 66, 72, 70, 14, 40, 47, 61, 55, 6, 58, 23, 51, 15, 22, 46, 60, 57, 68, 27, 10, 7, 21, 12, 48, 3, 67, 17, 44, 9, 13, 52, 63, 54, 30, 24, 43, 18, 8, 50, 39, 16, 26, 4, 19, 32, 28, 74, 36, 29, 37, 59, 25, 41, 1, 65, 45), 1386)
94: ((0, 35, 71, 62, 33, 69, 34, 5, 11, 38, 20, 49, 31, 73, 42, 56, 64, 2, 53, 66, 72, 70, 14, 40, 47, 61, 55, 6, 58, 23, 51, 15, 22, 46, 60, 57, 68, 27, 10, 7, 21, 12, 48, 3, 67, 17, 44, 9, 13, 52, 63, 54, 30, 24, 43, 18, 8, 50, 39, 16, 26, 4, 19, 32, 28, 74, 36, 29, 37, 59, 25, 41, 1, 65, 45), 1386)
95: ((0, 35, 71, 62, 33, 69, 34, 5, 11, 38, 20, 49, 31, 73, 42, 56, 64, 2, 53, 66, 72, 70, 14, 40, 47, 61, 55, 6, 58, 23, 51, 15, 22, 46, 60, 57, 68, 27, 10, 7, 21, 12, 48, 3, 67, 17, 44, 9, 13, 52, 63, 54, 30, 24, 43, 18, 8, 50, 39, 16, 26, 4, 19, 32, 28, 74, 36, 29, 37, 59, 25, 41, 1, 65, 45), 1386)
Best: ((0, 35, 71, 62, 33, 69, 34, 5, 11, 38, 20, 49, 31, 73, 42, 56, 64, 2, 53, 66, 72, 70, 14, 40, 47, 61, 55, 6, 58, 23, 51, 15, 22, 46, 60, 57, 68, 27, 10, 7, 21, 12, 48, 3, 67, 17, 44, 9, 13, 52, 63, 54, 30, 24, 43, 18, 8, 50, 39, 16, 26, 4, 19, 32, 28, 74, 36, 29, 37, 59, 25, 41, 1, 65, 45), 1386)
Runtime: 22.6757779 s